\ENCODING=ISO-8859-1
\Problem name: IloCplex_conflict

Minimize
 obj1:
Subject To
 c16:   y_0_0  = 3.79170036315918
 c17:   - 25 y_0_0 + 25 y_0_1  = 0
 c18:   500 y_0_0 - 1000 y_0_1 + 500 y_0_2  = 0
 c52:   y_0_3 >= 3.79999995231628
 c1081: 500 y_0_3 + 500 y_0_1 - 1000 y_0_2 <= 2
\Sum of equality rows in the conflict:
\ sum_eq: 476 y_0_0 - 975 y_0_1 + 500 y_0_2  = 3.79170036315918
Bounds
      y_0_3 Free
      y_0_0 Free
      y_0_1 Free
      y_0_2 Free
End
